p cnf 481 1886
28 -22 -42 0
24 -41 -48 0
13 2 10 0
-36 -33 43 0
-22 41 -5 0
-5 27 -3 0
43 -38 28 0
9 44 25 0
28 -32 -17 0
16 -22 36 0
-33 -32 -13 0
44 29 -34 0
24 8 -30 0
45 21 -50 0
-37 14 -40 0
29 14 -1 0
-11 -21 -3 0
-47 -44 32 0
27 5 -45 0
42 5 38 0
-11 -35 -31 0
41 30 35 0
3 50 -1 0
29 40 -41 0
10 37 -6 0
-6 14 -47 0
-7 49 -24 0
1 30 28 0
-35 29 -11 0
27 -4 22 0
-39 -40 26 0
16 9 45 0
27 -47 -18 0
11 -43 40 0
-14 37 -24 0
-8 -2 -32 0
-25 13 -20 0
-13 -20 37 0
11 -8 27 0
-41 39 6 0
13 22 11 0
11 -46 -17 0
2 12 -7 0
39 -31 -46 0
47 -14 26 0
13 -8 -22 0
-21 -34 -9 0
-19 24 21 0
29 46 1 0
13 -25 -14 0
-14 -7 -31 0
8 22 11 0
-29 40 -2 0
45 6 -43 0
37 -4 5 0
44 30 -12 0
34 42 43 0
-5 -18 -33 0
1 -49 -3 0
-10 3 29 0
-41 -44 18 0
17 33 39 0
-7 41 37 0
6 -7 3 0
-29 27 17 0
-25 -42 5 0
36 -33 14 0
41 15 -9 0
-1 40 -32 0
-50 -16 43 0
-28 35 -20 0
-3 16 19 0
-14 28 -3 0
-34 -26 -9 0
-29 -21 -14 0
-24 34 -13 0
2 42 47 0
-40 -39 38 0
27 25 -40 0
18 -39 -50 0
-21 -43 2 0
-2 25 11 0
-12 -31 25 0
-19 -27 20 0
8 29 -50 0
-1 16 6 0
-25 -32 23 0
22 -14 -30 0
-23 -38 -15 0
50 -8 -4 0
21 -2 44 0
-23 26 43 0
-8 -23 3 0
-7 3 36 0
47 9 49 0
13 19 48 0
-36 -5 -28 0
18 2 -33 0
23 -27 -29 0
16 -49 31 0
-1 -4 51 0
1 -4 -51 0
-1 4 -51 0
1 4 51 0
-5 6 52 0
5 6 -52 0
-5 -6 -52 0
5 -6 52 0
7 -10 53 0
-7 -10 -53 0
7 10 -53 0
-7 10 53 0
13 -17 54 0
-13 -17 -54 0
13 17 -54 0
-13 17 54 0
19 20 55 0
-19 20 -55 0
19 -20 -55 0
-19 -20 55 0
-23 -28 56 0
23 -28 -56 0
-23 28 -56 0
23 28 56 0
29 -32 57 0
-29 -32 -57 0
29 32 -57 0
-29 32 57 0
33 35 58 0
-33 35 -58 0
33 -35 -58 0
-33 -35 58 0
36 38 59 0
-36 38 -59 0
36 -38 -59 0
-36 -38 59 0
-39 -40 60 0
39 -40 -60 0
-39 40 -60 0
39 40 60 0
42 46 61 0
-42 46 -61 0
42 -46 -61 0
-42 -46 61 0
-47 49 62 0
47 49 -62 0
-47 -49 -62 0
47 -49 62 0
50 -51 63 0
-50 -51 -63 0
50 51 -63 0
-50 51 63 0
52 -53 64 0
-52 -53 -64 0
52 53 -64 0
-52 53 64 0
54 -55 65 0
-54 -55 -65 0
54 55 -65 0
-54 55 65 0
56 -57 66 0
-56 -57 -66 0
56 57 -66 0
-56 57 66 0
58 -59 67 0
-58 -59 -67 0
58 59 -67 0
-58 59 67 0
60 -61 68 0
-60 -61 -68 0
60 61 -68 0
-60 61 68 0
62 -63 69 0
-62 -63 -69 0
62 63 -69 0
-62 63 69 0
64 -65 70 0
-64 -65 -70 0
64 65 -70 0
-64 65 70 0
66 -67 71 0
-66 -67 -71 0
66 67 -71 0
-66 67 71 0
68 -69 72 0
-68 -69 -72 0
68 69 -72 0
-68 69 72 0
70 -71 73 0
-70 -71 -73 0
70 71 -73 0
-70 71 73 0
72 73 0
-72 -73 0
2 -3 74 0
-2 -3 -74 0
2 3 -74 0
-2 3 74 0
-5 6 75 0
5 6 -75 0
-5 -6 -75 0
5 -6 75 0
8 12 76 0
-8 12 -76 0
8 -12 -76 0
-8 -12 76 0
16 18 77 0
-16 18 -77 0
16 -18 -77 0
-16 -18 77 0
-19 21 78 0
19 21 -78 0
-19 -21 -78 0
19 -21 78 0
-23 -26 79 0
23 -26 -79 0
-23 26 -79 0
23 26 79 0
-28 -29 80 0
28 -29 -80 0
-28 29 -80 0
28 29 80 0
31 32 81 0
-31 32 -81 0
31 -32 -81 0
-31 -32 81 0
-34 37 82 0
34 37 -82 0
-34 -37 -82 0
34 -37 82 0
-39 40 83 0
39 40 -83 0
-39 -40 -83 0
39 -40 83 0
41 -42 84 0
-41 -42 -84 0
41 42 -84 0
-41 42 84 0
-45 -49 85 0
45 -49 -85 0
-45 49 -85 0
45 49 85 0
74 -75 86 0
-74 -75 -86 0
74 75 -86 0
-74 75 86 0
76 -77 87 0
-76 -77 -87 0
76 77 -87 0
-76 77 87 0
78 -79 88 0
-78 -79 -88 0
78 79 -88 0
-78 79 88 0
80 -81 89 0
-80 -81 -89 0
80 81 -89 0
-80 81 89 0
82 -83 90 0
-82 -83 -90 0
82 83 -90 0
-82 83 90 0
84 -85 91 0
-84 -85 -91 0
84 85 -91 0
-84 85 91 0
86 -87 92 0
-86 -87 -92 0
86 87 -92 0
-86 87 92 0
88 -89 93 0
-88 -89 -93 0
88 89 -93 0
-88 89 93 0
90 -91 94 0
-90 -91 -94 0
90 91 -94 0
-90 91 94 0
-92 -93 94 0
92 -93 -94 0
-92 93 -94 0
92 93 94 0
1 4 95 0
-1 4 -95 0
1 -4 -95 0
-1 -4 95 0
-5 7 96 0
5 7 -96 0
-5 -7 -96 0
5 -7 96 0
8 10 97 0
-8 10 -97 0
8 -10 -97 0
-8 -10 97 0
11 12 98 0
-11 12 -98 0
11 -12 -98 0
-11 -12 98 0
13 -16 99 0
-13 -16 -99 0
13 16 -99 0
-13 16 99 0
17 18 100 0
-17 18 -100 0
17 -18 -100 0
-17 -18 100 0
-21 39 101 0
21 39 -101 0
-21 -39 -101 0
21 -39 101 0
-42 43 102 0
42 43 -102 0
-42 -43 -102 0
42 -43 102 0
-46 -47 103 0
46 -47 -103 0
-46 47 -103 0
46 47 103 0
94 -95 104 0
-94 -95 -104 0
94 95 -104 0
-94 95 104 0
96 -97 105 0
-96 -97 -105 0
96 97 -105 0
-96 97 105 0
98 -99 106 0
-98 -99 -106 0
98 99 -106 0
-98 99 106 0
100 -101 107 0
-100 -101 -107 0
100 101 -107 0
-100 101 107 0
102 -103 108 0
-102 -103 -108 0
102 103 -108 0
-102 103 108 0
104 -105 109 0
-104 -105 -109 0
104 105 -109 0
-104 105 109 0
106 -107 110 0
-106 -107 -110 0
106 107 -110 0
-106 107 110 0
-108 -109 110 0
108 -109 -110 0
-108 109 -110 0
108 109 110 0
-1 2 111 0
1 2 -111 0
-1 -2 -111 0
1 -2 111 0
-5 -9 112 0
5 -9 -112 0
-5 9 -112 0
5 9 112 0
-13 14 113 0
13 14 -113 0
-13 -14 -113 0
13 -14 113 0
-15 17 114 0
15 17 -114 0
-15 -17 -114 0
15 -17 114 0
18 -19 115 0
-18 -19 -115 0
18 19 -115 0
-18 19 115 0
21 22 116 0
-21 22 -116 0
21 -22 -116 0
-21 -22 116 0
23 -24 117 0
-23 -24 -117 0
23 24 -117 0
-23 24 117 0
26 -28 118 0
-26 -28 -118 0
26 28 -118 0
-26 28 118 0
-29 -30 119 0
29 -30 -119 0
-29 30 -119 0
29 30 119 0
-32 33 120 0
32 33 -120 0
-32 -33 -120 0
32 -33 120 0
-34 -35 121 0
34 -35 -121 0
-34 35 -121 0
34 35 121 0
38 -41 122 0
-38 -41 -122 0
38 41 -122 0
-38 41 122 0
43 47 123 0
-43 47 -123 0
43 -47 -123 0
-43 -47 123 0
110 -111 124 0
-110 -111 -124 0
110 111 -124 0
-110 111 124 0
112 -113 125 0
-112 -113 -125 0
112 113 -125 0
-112 113 125 0
114 -115 126 0
-114 -115 -126 0
114 115 -126 0
-114 115 126 0
116 -117 127 0
-116 -117 -127 0
116 117 -127 0
-116 117 127 0
118 -119 128 0
-118 -119 -128 0
118 119 -128 0
-118 119 128 0
120 -121 129 0
-120 -121 -129 0
120 121 -129 0
-120 121 129 0
122 -123 130 0
-122 -123 -130 0
122 123 -130 0
-122 123 130 0
124 -125 131 0
-124 -125 -131 0
124 125 -131 0
-124 125 131 0
126 -127 132 0
-126 -127 -132 0
126 127 -132 0
-126 127 132 0
128 -129 133 0
-128 -129 -133 0
128 129 -133 0
-128 129 133 0
130 -131 134 0
-130 -131 -134 0
130 131 -134 0
-130 131 134 0
132 -133 135 0
-132 -133 -135 0
132 133 -135 0
-132 133 135 0
134 135 0
-134 -135 0
-1 -2 136 0
1 -2 -136 0
-1 2 -136 0
1 2 136 0
8 -14 137 0
-8 -14 -137 0
8 14 -137 0
-8 14 137 0
-16 -17 138 0
16 -17 -138 0
-16 17 -138 0
16 17 138 0
-18 19 139 0
18 19 -139 0
-18 -19 -139 0
18 -19 139 0
20 22 140 0
-20 22 -140 0
20 -22 -140 0
-20 -22 140 0
23 24 141 0
-23 24 -141 0
23 -24 -141 0
-23 -24 141 0
-25 -26 142 0
25 -26 -142 0
-25 26 -142 0
25 26 142 0
-27 -30 143 0
27 -30 -143 0
-27 30 -143 0
27 30 143 0
34 35 144 0
-34 35 -144 0
34 -35 -144 0
-34 -35 144 0
-38 -40 145 0
38 -40 -145 0
-38 40 -145 0
38 40 145 0
-42 -45 146 0
42 -45 -146 0
-42 45 -146 0
42 45 146 0
-46 47 147 0
46 47 -147 0
-46 -47 -147 0
46 -47 147 0
136 -137 148 0
-136 -137 -148 0
136 137 -148 0
-136 137 148 0
138 -139 149 0
-138 -139 -149 0
138 139 -149 0
-138 139 149 0
140 -141 150 0
-140 -141 -150 0
140 141 -150 0
-140 141 150 0
142 -143 151 0
-142 -143 -151 0
142 143 -151 0
-142 143 151 0
144 -145 152 0
-144 -145 -152 0
144 145 -152 0
-144 145 152 0
146 -147 153 0
-146 -147 -153 0
146 147 -153 0
-146 147 153 0
148 -149 154 0
-148 -149 -154 0
148 149 -154 0
-148 149 154 0
150 -151 155 0
-150 -151 -155 0
150 151 -155 0
-150 151 155 0
152 -153 156 0
-152 -153 -156 0
152 153 -156 0
-152 153 156 0
-154 -155 156 0
154 -155 -156 0
-154 155 -156 0
154 155 156 0
9 11 157 0
-9 11 -157 0
9 -11 -157 0
-9 -11 157 0
-16 17 158 0
16 17 -158 0
-16 -17 -158 0
16 -17 158 0
-18 21 159 0
18 21 -159 0
-18 -21 -159 0
18 -21 159 0
-24 25 160 0
24 25 -160 0
-24 -25 -160 0
24 -25 160 0
-26 31 161 0
26 31 -161 0
-26 -31 -161 0
26 -31 161 0
-35 -36 162 0
35 -36 -162 0
-35 36 -162 0
35 36 162 0
39 46 163 0
-39 46 -163 0
39 -46 -163 0
-39 -46 163 0
47 49 164 0
-47 49 -164 0
47 -49 -164 0
-47 -49 164 0
156 -157 165 0
-156 -157 -165 0
156 157 -165 0
-156 157 165 0
158 -159 166 0
-158 -159 -166 0
158 159 -166 0
-158 159 166 0
160 -161 167 0
-160 -161 -167 0
160 161 -167 0
-160 161 167 0
162 -163 168 0
-162 -163 -168 0
162 163 -168 0
-162 163 168 0
164 -165 169 0
-164 -165 -169 0
164 165 -169 0
-164 165 169 0
166 -167 170 0
-166 -167 -170 0
166 167 -170 0
-166 167 170 0
-168 -169 170 0
168 -169 -170 0
-168 169 -170 0
168 169 170 0
-1 -3 171 0
1 -3 -171 0
-1 3 -171 0
1 3 171 0
-6 -9 172 0
6 -9 -172 0
-6 9 -172 0
6 9 172 0
10 11 173 0
-10 11 -173 0
10 -11 -173 0
-10 -11 173 0
12 14 174 0
-12 14 -174 0
12 -14 -174 0
-12 -14 174 0
-16 17 175 0
16 17 -175 0
-16 -17 -175 0
16 -17 175 0
-18 19 176 0
18 19 -176 0
-18 -19 -176 0
18 -19 176 0
-23 -25 177 0
23 -25 -177 0
-23 25 -177 0
23 25 177 0
26 -27 178 0
-26 -27 -178 0
26 27 -178 0
-26 27 178 0
28 30 179 0
-28 30 -179 0
28 -30 -179 0
-28 -30 179 0
-33 -37 180 0
33 -37 -180 0
-33 37 -180 0
33 37 180 0
38 -39 181 0
-38 -39 -181 0
38 39 -181 0
-38 39 181 0
40 -41 182 0
-40 -41 -182 0
40 41 -182 0
-40 41 182 0
43 -47 183 0
-43 -47 -183 0
43 47 -183 0
-43 47 183 0
49 -50 184 0
-49 -50 -184 0
49 50 -184 0
-49 50 184 0
171 -172 185 0
-171 -172 -185 0
171 172 -185 0
-171 172 185 0
173 -174 186 0
-173 -174 -186 0
173 174 -186 0
-173 174 186 0
175 -176 187 0
-175 -176 -187 0
175 176 -187 0
-175 176 187 0
177 -178 188 0
-177 -178 -188 0
177 178 -188 0
-177 178 188 0
179 -180 189 0
-179 -180 -189 0
179 180 -189 0
-179 180 189 0
181 -182 190 0
-181 -182 -190 0
181 182 -190 0
-181 182 190 0
183 -184 191 0
-183 -184 -191 0
183 184 -191 0
-183 184 191 0
185 -186 192 0
-185 -186 -192 0
185 186 -192 0
-185 186 192 0
187 -188 193 0
-187 -188 -193 0
187 188 -193 0
-187 188 193 0
189 -190 194 0
-189 -190 -194 0
189 190 -194 0
-189 190 194 0
191 -192 195 0
-191 -192 -195 0
191 192 -195 0
-191 192 195 0
193 -194 196 0
-193 -194 -196 0
193 194 -196 0
-193 194 196 0
195 196 0
-195 -196 0
1 4 197 0
-1 4 -197 0
1 -4 -197 0
-1 -4 197 0
-6 10 198 0
6 10 -198 0
-6 -10 -198 0
6 -10 198 0
-11 -12 199 0
11 -12 -199 0
-11 12 -199 0
11 12 199 0
13 15 200 0
-13 15 -200 0
13 -15 -200 0
-13 -15 200 0
-16 -17 201 0
16 -17 -201 0
-16 17 -201 0
16 17 201 0
18 -19 202 0
-18 -19 -202 0
18 19 -202 0
-18 19 202 0
-20 22 203 0
20 22 -203 0
-20 -22 -203 0
20 -22 203 0
-23 24 204 0
23 24 -204 0
-23 -24 -204 0
23 -24 204 0
-26 27 205 0
26 27 -205 0
-26 -27 -205 0
26 -27 205 0
28 -29 206 0
-28 -29 -206 0
28 29 -206 0
-28 29 206 0
30 33 207 0
-30 33 -207 0
30 -33 -207 0
-30 -33 207 0
-34 35 208 0
34 35 -208 0
-34 -35 -208 0
34 -35 208 0
36 -37 209 0
-36 -37 -209 0
36 37 -209 0
-36 37 209 0
-38 40 210 0
38 40 -210 0
-38 -40 -210 0
38 -40 210 0
41 -43 211 0
-41 -43 -211 0
41 43 -211 0
-41 43 211 0
196 -197 212 0
-196 -197 -212 0
196 197 -212 0
-196 197 212 0
198 -199 213 0
-198 -199 -213 0
198 199 -213 0
-198 199 213 0
200 -201 214 0
-200 -201 -214 0
200 201 -214 0
-200 201 214 0
202 -203 215 0
-202 -203 -215 0
202 203 -215 0
-202 203 215 0
204 -205 216 0
-204 -205 -216 0
204 205 -216 0
-204 205 216 0
206 -207 217 0
-206 -207 -217 0
206 207 -217 0
-206 207 217 0
208 -209 218 0
-208 -209 -218 0
208 209 -218 0
-208 209 218 0
210 -211 219 0
-210 -211 -219 0
210 211 -219 0
-210 211 219 0
212 -213 220 0
-212 -213 -220 0
212 213 -220 0
-212 213 220 0
214 -215 221 0
-214 -215 -221 0
214 215 -221 0
-214 215 221 0
216 -217 222 0
-216 -217 -222 0
216 217 -222 0
-216 217 222 0
218 -219 223 0
-218 -219 -223 0
218 219 -223 0
-218 219 223 0
220 -221 224 0
-220 -221 -224 0
220 221 -224 0
-220 221 224 0
222 -223 225 0
-222 -223 -225 0
222 223 -225 0
-222 223 225 0
224 225 0
-224 -225 0
1 2 226 0
-1 2 -226 0
1 -2 -226 0
-1 -2 226 0
-3 8 227 0
3 8 -227 0
-3 -8 -227 0
3 -8 227 0
-9 13 228 0
9 13 -228 0
-9 -13 -228 0
9 -13 228 0
16 17 229 0
-16 17 -229 0
16 -17 -229 0
-16 -17 229 0
-20 21 230 0
20 21 -230 0
-20 -21 -230 0
20 -21 230 0
22 24 231 0
-22 24 -231 0
22 -24 -231 0
-22 -24 231 0
-25 28 232 0
25 28 -232 0
-25 -28 -232 0
25 -28 232 0
-30 31 233 0
30 31 -233 0
-30 -31 -233 0
30 -31 233 0
-32 -33 234 0
32 -33 -234 0
-32 33 -234 0
32 33 234 0
-38 -44 235 0
38 -44 -235 0
-38 44 -235 0
38 44 235 0
-45 46 236 0
45 46 -236 0
-45 -46 -236 0
45 -46 236 0
225 -226 237 0
-225 -226 -237 0
225 226 -237 0
-225 226 237 0
227 -228 238 0
-227 -228 -238 0
227 228 -238 0
-227 228 238 0
229 -230 239 0
-229 -230 -239 0
229 230 -239 0
-229 230 239 0
231 -232 240 0
-231 -232 -240 0
231 232 -240 0
-231 232 240 0
233 -234 241 0
-233 -234 -241 0
233 234 -241 0
-233 234 241 0
235 -236 242 0
-235 -236 -242 0
235 236 -242 0
-235 236 242 0
237 -238 243 0
-237 -238 -243 0
237 238 -243 0
-237 238 243 0
239 -240 244 0
-239 -240 -244 0
239 240 -244 0
-239 240 244 0
241 -242 245 0
-241 -242 -245 0
241 242 -245 0
-241 242 245 0
-243 -244 245 0
243 -244 -245 0
-243 244 -245 0
243 244 245 0
-2 3 246 0
2 3 -246 0
-2 -3 -246 0
2 -3 246 0
-4 5 247 0
4 5 -247 0
-4 -5 -247 0
4 -5 247 0
-8 -10 248 0
8 -10 -248 0
-8 10 -248 0
8 10 248 0
-11 14 249 0
11 14 -249 0
-11 -14 -249 0
11 -14 249 0
-16 -17 250 0
16 -17 -250 0
-16 17 -250 0
16 17 250 0
18 -20 251 0
-18 -20 -251 0
18 20 -251 0
-18 20 251 0
21 -22 252 0
-21 -22 -252 0
21 22 -252 0
-21 22 252 0
24 27 253 0
-24 27 -253 0
24 -27 -253 0
-24 -27 253 0
-28 29 254 0
28 29 -254 0
-28 -29 -254 0
28 -29 254 0
-31 -33 255 0
31 -33 -255 0
-31 33 -255 0
31 33 255 0
-34 38 256 0
34 38 -256 0
-34 -38 -256 0
34 -38 256 0
-39 40 257 0
39 40 -257 0
-39 -40 -257 0
39 -40 257 0
-44 46 258 0
44 46 -258 0
-44 -46 -258 0
44 -46 258 0
48 50 259 0
-48 50 -259 0
48 -50 -259 0
-48 -50 259 0
246 -247 260 0
-246 -247 -260 0
246 247 -260 0
-246 247 260 0
248 -249 261 0
-248 -249 -261 0
248 249 -261 0
-248 249 261 0
250 -251 262 0
-250 -251 -262 0
250 251 -262 0
-250 251 262 0
252 -253 263 0
-252 -253 -263 0
252 253 -263 0
-252 253 263 0
254 -255 264 0
-254 -255 -264 0
254 255 -264 0
-254 255 264 0
256 -257 265 0
-256 -257 -265 0
256 257 -265 0
-256 257 265 0
258 -259 266 0
-258 -259 -266 0
258 259 -266 0
-258 259 266 0
260 -261 267 0
-260 -261 -267 0
260 261 -267 0
-260 261 267 0
262 -263 268 0
-262 -263 -268 0
262 263 -268 0
-262 263 268 0
264 -265 269 0
-264 -265 -269 0
264 265 -269 0
-264 265 269 0
266 -267 270 0
-266 -267 -270 0
266 267 -270 0
-266 267 270 0
268 -269 271 0
-268 -269 -271 0
268 269 -271 0
-268 269 271 0
270 271 0
-270 -271 0
1 2 272 0
-1 2 -272 0
1 -2 -272 0
-1 -2 272 0
4 5 273 0
-4 5 -273 0
4 -5 -273 0
-4 -5 273 0
-7 -8 274 0
7 -8 -274 0
-7 8 -274 0
7 8 274 0
9 -11 275 0
-9 -11 -275 0
9 11 -275 0
-9 11 275 0
-12 13 276 0
12 13 -276 0
-12 -13 -276 0
12 -13 276 0
18 22 277 0
-18 22 -277 0
18 -22 -277 0
-18 -22 277 0
-25 26 278 0
25 26 -278 0
-25 -26 -278 0
25 -26 278 0
28 30 279 0
-28 30 -279 0
28 -30 -279 0
-28 -30 279 0
37 38 280 0
-37 38 -280 0
37 -38 -280 0
-37 -38 280 0
-41 -43 281 0
41 -43 -281 0
-41 43 -281 0
41 43 281 0
45 46 282 0
-45 46 -282 0
45 -46 -282 0
-45 -46 282 0
-47 -49 283 0
47 -49 -283 0
-47 49 -283 0
47 49 283 0
272 -273 284 0
-272 -273 -284 0
272 273 -284 0
-272 273 284 0
274 -275 285 0
-274 -275 -285 0
274 275 -285 0
-274 275 285 0
276 -277 286 0
-276 -277 -286 0
276 277 -286 0
-276 277 286 0
278 -279 287 0
-278 -279 -287 0
278 279 -287 0
-278 279 287 0
280 -281 288 0
-280 -281 -288 0
280 281 -288 0
-280 281 288 0
282 -283 289 0
-282 -283 -289 0
282 283 -289 0
-282 283 289 0
284 -285 290 0
-284 -285 -290 0
284 285 -290 0
-284 285 290 0
286 -287 291 0
-286 -287 -291 0
286 287 -291 0
-286 287 291 0
288 -289 292 0
-288 -289 -292 0
288 289 -292 0
-288 289 292 0
-290 -291 292 0
290 -291 -292 0
-290 291 -292 0
290 291 292 0
2 -4 293 0
-2 -4 -293 0
2 4 -293 0
-2 4 293 0
-5 -6 294 0
5 -6 -294 0
-5 6 -294 0
5 6 294 0
-10 -11 295 0
10 -11 -295 0
-10 11 -295 0
10 11 295 0
-12 13 296 0
12 13 -296 0
-12 -13 -296 0
12 -13 296 0
-14 15 297 0
14 15 -297 0
-14 -15 -297 0
14 -15 297 0
-16 -17 298 0
16 -17 -298 0
-16 17 -298 0
16 17 298 0
-18 20 299 0
18 20 -299 0
-18 -20 -299 0
18 -20 299 0
22 24 300 0
-22 24 -300 0
22 -24 -300 0
-22 -24 300 0
27 28 301 0
-27 28 -301 0
27 -28 -301 0
-27 -28 301 0
31 32 302 0
-31 32 -302 0
31 -32 -302 0
-31 -32 302 0
-34 -39 303 0
34 -39 -303 0
-34 39 -303 0
34 39 303 0
40 41 304 0
-40 41 -304 0
40 -41 -304 0
-40 -41 304 0
43 -44 305 0
-43 -44 -305 0
43 44 -305 0
-43 44 305 0
46 47 306 0
-46 47 -306 0
46 -47 -306 0
-46 -47 306 0
49 -50 307 0
-49 -50 -307 0
49 50 -307 0
-49 50 307 0
293 -294 308 0
-293 -294 -308 0
293 294 -308 0
-293 294 308 0
295 -296 309 0
-295 -296 -309 0
295 296 -309 0
-295 296 309 0
297 -298 310 0
-297 -298 -310 0
297 298 -310 0
-297 298 310 0
299 -300 311 0
-299 -300 -311 0
299 300 -311 0
-299 300 311 0
301 -302 312 0
-301 -302 -312 0
301 302 -312 0
-301 302 312 0
303 -304 313 0
-303 -304 -313 0
303 304 -313 0
-303 304 313 0
305 -306 314 0
-305 -306 -314 0
305 306 -314 0
-305 306 314 0
307 -308 315 0
-307 -308 -315 0
307 308 -315 0
-307 308 315 0
309 -310 316 0
-309 -310 -316 0
309 310 -316 0
-309 310 316 0
311 -312 317 0
-311 -312 -317 0
311 312 -317 0
-311 312 317 0
313 -314 318 0
-313 -314 -318 0
313 314 -318 0
-313 314 318 0
315 -316 319 0
-315 -316 -319 0
315 316 -319 0
-315 316 319 0
317 -318 320 0
-317 -318 -320 0
317 318 -320 0
-317 318 320 0
319 320 0
-319 -320 0
-3 -4 321 0
3 -4 -321 0
-3 4 -321 0
3 4 321 0
-5 -6 322 0
5 -6 -322 0
-5 6 -322 0
5 6 322 0
-7 -8 323 0
7 -8 -323 0
-7 8 -323 0
7 8 323 0
9 -12 324 0
-9 -12 -324 0
9 12 -324 0
-9 12 324 0
-14 -15 325 0
14 -15 -325 0
-14 15 -325 0
14 15 325 0
17 18 326 0
-17 18 -326 0
17 -18 -326 0
-17 -18 326 0
-19 22 327 0
19 22 -327 0
-19 -22 -327 0
19 -22 327 0
26 -28 328 0
-26 -28 -328 0
26 28 -328 0
-26 28 328 0
-31 -33 329 0
31 -33 -329 0
-31 33 -329 0
31 33 329 0
36 41 330 0
-36 41 -330 0
36 -41 -330 0
-36 -41 330 0
-45 -46 331 0
45 -46 -331 0
-45 46 -331 0
45 46 331 0
320 -321 332 0
-320 -321 -332 0
320 321 -332 0
-320 321 332 0
322 -323 333 0
-322 -323 -333 0
322 323 -333 0
-322 323 333 0
324 -325 334 0
-324 -325 -334 0
324 325 -334 0
-324 325 334 0
326 -327 335 0
-326 -327 -335 0
326 327 -335 0
-326 327 335 0
328 -329 336 0
-328 -329 -336 0
328 329 -336 0
-328 329 336 0
330 -331 337 0
-330 -331 -337 0
330 331 -337 0
-330 331 337 0
332 -333 338 0
-332 -333 -338 0
332 333 -338 0
-332 333 338 0
334 -335 339 0
-334 -335 -339 0
334 335 -339 0
-334 335 339 0
336 -337 340 0
-336 -337 -340 0
336 337 -340 0
-336 337 340 0
-338 -339 340 0
338 -339 -340 0
-338 339 -340 0
338 339 340 0
3 -4 341 0
-3 -4 -341 0
3 4 -341 0
-3 4 341 0
7 8 342 0
-7 8 -342 0
7 -8 -342 0
-7 -8 342 0
10 14 343 0
-10 14 -343 0
10 -14 -343 0
-10 -14 343 0
-15 -18 344 0
15 -18 -344 0
-15 18 -344 0
15 18 344 0
19 -20 345 0
-19 -20 -345 0
19 20 -345 0
-19 20 345 0
-22 24 346 0
22 24 -346 0
-22 -24 -346 0
22 -24 346 0
26 28 347 0
-26 28 -347 0
26 -28 -347 0
-26 -28 347 0
30 32 348 0
-30 32 -348 0
30 -32 -348 0
-30 -32 348 0
-35 -37 349 0
35 -37 -349 0
-35 37 -349 0
35 37 349 0
-39 41 350 0
39 41 -350 0
-39 -41 -350 0
39 -41 350 0
-42 44 351 0
42 44 -351 0
-42 -44 -351 0
42 -44 351 0
45 -46 352 0
-45 -46 -352 0
45 46 -352 0
-45 46 352 0
-48 50 353 0
48 50 -353 0
-48 -50 -353 0
48 -50 353 0
341 -342 354 0
-341 -342 -354 0
341 342 -354 0
-341 342 354 0
343 -344 355 0
-343 -344 -355 0
343 344 -355 0
-343 344 355 0
345 -346 356 0
-345 -346 -356 0
345 346 -356 0
-345 346 356 0
347 -348 357 0
-347 -348 -357 0
347 348 -357 0
-347 348 357 0
349 -350 358 0
-349 -350 -358 0
349 350 -358 0
-349 350 358 0
351 -352 359 0
-351 -352 -359 0
351 352 -359 0
-351 352 359 0
353 -354 360 0
-353 -354 -360 0
353 354 -360 0
-353 354 360 0
355 -356 361 0
-355 -356 -361 0
355 356 -361 0
-355 356 361 0
357 -358 362 0
-357 -358 -362 0
357 358 -362 0
-357 358 362 0
359 -360 363 0
-359 -360 -363 0
359 360 -363 0
-359 360 363 0
361 -362 364 0
-361 -362 -364 0
361 362 -364 0
-361 362 364 0
363 364 0
-363 -364 0
1 -2 365 0
-1 -2 -365 0
1 2 -365 0
-1 2 365 0
-4 -7 366 0
4 -7 -366 0
-4 7 -366 0
4 7 366 0
-8 -9 367 0
8 -9 -367 0
-8 9 -367 0
8 9 367 0
-10 12 368 0
10 12 -368 0
-10 -12 -368 0
10 -12 368 0
-16 -17 369 0
16 -17 -369 0
-16 17 -369 0
16 17 369 0
-19 20 370 0
19 20 -370 0
-19 -20 -370 0
19 -20 370 0
24 26 371 0
-24 26 -371 0
24 -26 -371 0
-24 -26 371 0
-29 -34 372 0
29 -34 -372 0
-29 34 -372 0
29 34 372 0
-36 38 373 0
36 38 -373 0
-36 -38 -373 0
36 -38 373 0
39 45 374 0
-39 45 -374 0
39 -45 -374 0
-39 -45 374 0
46 47 375 0
-46 47 -375 0
46 -47 -375 0
-46 -47 375 0
364 -365 376 0
-364 -365 -376 0
364 365 -376 0
-364 365 376 0
366 -367 377 0
-366 -367 -377 0
366 367 -377 0
-366 367 377 0
368 -369 378 0
-368 -369 -378 0
368 369 -378 0
-368 369 378 0
370 -371 379 0
-370 -371 -379 0
370 371 -379 0
-370 371 379 0
372 -373 380 0
-372 -373 -380 0
372 373 -380 0
-372 373 380 0
374 -375 381 0
-374 -375 -381 0
374 375 -381 0
-374 375 381 0
376 -377 382 0
-376 -377 -382 0
376 377 -382 0
-376 377 382 0
378 -379 383 0
-378 -379 -383 0
378 379 -383 0
-378 379 383 0
380 -381 384 0
-380 -381 -384 0
380 381 -384 0
-380 381 384 0
-382 -383 384 0
382 -383 -384 0
-382 383 -384 0
382 383 384 0
-1 3 385 0
1 3 -385 0
-1 -3 -385 0
1 -3 385 0
4 15 386 0
-4 15 -386 0
4 -15 -386 0
-4 -15 386 0
-17 19 387 0
17 19 -387 0
-17 -19 -387 0
17 -19 387 0
-22 26 388 0
22 26 -388 0
-22 -26 -388 0
22 -26 388 0
-27 -31 389 0
27 -31 -389 0
-27 31 -389 0
27 31 389 0
-32 36 390 0
32 36 -390 0
-32 -36 -390 0
32 -36 390 0
38 -40 391 0
-38 -40 -391 0
38 40 -391 0
-38 40 391 0
-41 -45 392 0
41 -45 -392 0
-41 45 -392 0
41 45 392 0
46 -50 393 0
-46 -50 -393 0
46 50 -393 0
-46 50 393 0
385 -386 394 0
-385 -386 -394 0
385 386 -394 0
-385 386 394 0
387 -388 395 0
-387 -388 -395 0
387 388 -395 0
-387 388 395 0
389 -390 396 0
-389 -390 -396 0
389 390 -396 0
-389 390 396 0
391 -392 397 0
-391 -392 -397 0
391 392 -397 0
-391 392 397 0
393 -394 398 0
-393 -394 -398 0
393 394 -398 0
-393 394 398 0
395 -396 399 0
-395 -396 -399 0
395 396 -399 0
-395 396 399 0
-397 -398 399 0
397 -398 -399 0
-397 398 -399 0
397 398 399 0
-1 -2 400 0
1 -2 -400 0
-1 2 -400 0
1 2 400 0
5 -6 401 0
-5 -6 -401 0
5 6 -401 0
-5 6 401 0
10 14 402 0
-10 14 -402 0
10 -14 -402 0
-10 -14 402 0
-15 16 403 0
15 16 -403 0
-15 -16 -403 0
15 -16 403 0
-18 19 404 0
18 19 -404 0
-18 -19 -404 0
18 -19 404 0
-21 -23 405 0
21 -23 -405 0
-21 23 -405 0
21 23 405 0
26 -27 406 0
-26 -27 -406 0
26 27 -406 0
-26 27 406 0
-29 -33 407 0
29 -33 -407 0
-29 33 -407 0
29 33 407 0
34 -37 408 0
-34 -37 -408 0
34 37 -408 0
-34 37 408 0
-38 -42 409 0
38 -42 -409 0
-38 42 -409 0
38 42 409 0
-43 44 410 0
43 44 -410 0
-43 -44 -410 0
43 -44 410 0
399 -400 411 0
-399 -400 -411 0
399 400 -411 0
-399 400 411 0
401 -402 412 0
-401 -402 -412 0
401 402 -412 0
-401 402 412 0
403 -404 413 0
-403 -404 -413 0
403 404 -413 0
-403 404 413 0
405 -406 414 0
-405 -406 -414 0
405 406 -414 0
-405 406 414 0
407 -408 415 0
-407 -408 -415 0
407 408 -415 0
-407 408 415 0
409 -410 416 0
-409 -410 -416 0
409 410 -416 0
-409 410 416 0
411 -412 417 0
-411 -412 -417 0
411 412 -417 0
-411 412 417 0
413 -414 418 0
-413 -414 -418 0
413 414 -418 0
-413 414 418 0
415 -416 419 0
-415 -416 -419 0
415 416 -419 0
-415 416 419 0
-417 -418 419 0
417 -418 -419 0
-417 418 -419 0
417 418 419 0
-3 -4 420 0
3 -4 -420 0
-3 4 -420 0
3 4 420 0
-5 -7 421 0
5 -7 -421 0
-5 7 -421 0
5 7 421 0
-8 -9 422 0
8 -9 -422 0
-8 9 -422 0
8 9 422 0
-11 -17 423 0
11 -17 -423 0
-11 17 -423 0
11 17 423 0
18 20 424 0
-18 20 -424 0
18 -20 -424 0
-18 -20 424 0
-23 26 425 0
23 26 -425 0
-23 -26 -425 0
23 -26 425 0
-27 -28 426 0
27 -28 -426 0
-27 28 -426 0
27 28 426 0
-30 -31 427 0
30 -31 -427 0
-30 31 -427 0
30 31 427 0
-32 -33 428 0
32 -33 -428 0
-32 33 -428 0
32 33 428 0
-34 -36 429 0
34 -36 -429 0
-34 36 -429 0
34 36 429 0
-38 40 430 0
38 40 -430 0
-38 -40 -430 0
38 -40 430 0
45 -47 431 0
-45 -47 -431 0
45 47 -431 0
-45 47 431 0
419 -420 432 0
-419 -420 -432 0
419 420 -432 0
-419 420 432 0
421 -422 433 0
-421 -422 -433 0
421 422 -433 0
-421 422 433 0
423 -424 434 0
-423 -424 -434 0
423 424 -434 0
-423 424 434 0
425 -426 435 0
-425 -426 -435 0
425 426 -435 0
-425 426 435 0
427 -428 436 0
-427 -428 -436 0
427 428 -436 0
-427 428 436 0
429 -430 437 0
-429 -430 -437 0
429 430 -437 0
-429 430 437 0
431 -432 438 0
-431 -432 -438 0
431 432 -438 0
-431 432 438 0
433 -434 439 0
-433 -434 -439 0
433 434 -439 0
-433 434 439 0
435 -436 440 0
-435 -436 -440 0
435 436 -440 0
-435 436 440 0
437 -438 441 0
-437 -438 -441 0
437 438 -441 0
-437 438 441 0
439 -440 442 0
-439 -440 -442 0
439 440 -442 0
-439 440 442 0
441 442 0
-441 -442 0
1 -7 443 0
-1 -7 -443 0
1 7 -443 0
-1 7 443 0
10 12 444 0
-10 12 -444 0
10 -12 -444 0
-10 -12 444 0
14 -15 445 0
-14 -15 -445 0
14 15 -445 0
-14 15 445 0
17 18 446 0
-17 18 -446 0
17 -18 -446 0
-17 -18 446 0
-20 -25 447 0
20 -25 -447 0
-20 25 -447 0
20 25 447 0
-29 30 448 0
29 30 -448 0
-29 -30 -448 0
29 -30 448 0
33 -34 449 0
-33 -34 -449 0
33 34 -449 0
-33 34 449 0
-41 -44 450 0
41 -44 -450 0
-41 44 -450 0
41 44 450 0
442 -443 451 0
-442 -443 -451 0
442 443 -451 0
-442 443 451 0
444 -445 452 0
-444 -445 -452 0
444 445 -452 0
-444 445 452 0
446 -447 453 0
-446 -447 -453 0
446 447 -453 0
-446 447 453 0
448 -449 454 0
-448 -449 -454 0
448 449 -454 0
-448 449 454 0
450 -451 455 0
-450 -451 -455 0
450 451 -455 0
-450 451 455 0
452 -453 456 0
-452 -453 -456 0
452 453 -456 0
-452 453 456 0
-454 -455 456 0
454 -455 -456 0
-454 455 -456 0
454 455 456 0
-1 4 457 0
1 4 -457 0
-1 -4 -457 0
1 -4 457 0
-6 -7 458 0
6 -7 -458 0
-6 7 -458 0
6 7 458 0
-8 -10 459 0
8 -10 -459 0
-8 10 -459 0
8 10 459 0
11 -14 460 0
-11 -14 -460 0
11 14 -460 0
-11 14 460 0
-15 -16 461 0
15 -16 -461 0
-15 16 -461 0
15 16 461 0
-18 -20 462 0
18 -20 -462 0
-18 20 -462 0
18 20 462 0
22 26 463 0
-22 26 -463 0
22 -26 -463 0
-22 -26 463 0
27 28 464 0
-27 28 -464 0
27 -28 -464 0
-27 -28 464 0
29 -31 465 0
-29 -31 -465 0
29 31 -465 0
-29 31 465 0
-33 40 466 0
33 40 -466 0
-33 -40 -466 0
33 -40 466 0
42 -43 467 0
-42 -43 -467 0
42 43 -467 0
-42 43 467 0
-45 46 468 0
45 46 -468 0
-45 -46 -468 0
45 -46 468 0
48 49 469 0
-48 49 -469 0
48 -49 -469 0
-48 -49 469 0
456 -457 470 0
-456 -457 -470 0
456 457 -470 0
-456 457 470 0
458 -459 471 0
-458 -459 -471 0
458 459 -471 0
-458 459 471 0
460 -461 472 0
-460 -461 -472 0
460 461 -472 0
-460 461 472 0
462 -463 473 0
-462 -463 -473 0
462 463 -473 0
-462 463 473 0
464 -465 474 0
-464 -465 -474 0
464 465 -474 0
-464 465 474 0
466 -467 475 0
-466 -467 -475 0
466 467 -475 0
-466 467 475 0
468 -469 476 0
-468 -469 -476 0
468 469 -476 0
-468 469 476 0
470 -471 477 0
-470 -471 -477 0
470 471 -477 0
-470 471 477 0
472 -473 478 0
-472 -473 -478 0
472 473 -478 0
-472 473 478 0
474 -475 479 0
-474 -475 -479 0
474 475 -479 0
-474 475 479 0
476 -477 480 0
-476 -477 -480 0
476 477 -480 0
-476 477 480 0
478 -479 481 0
-478 -479 -481 0
478 479 -481 0
-478 479 481 0
480 481 0
-480 -481 0
